c WARNING: for repeatability, setting FPU to use double precision
d VARIABLES            201564       
d CONSTRAINTS          921707       
c ============================[ Problem Statistics ]=============================
c |                                                                             |
c |  Number of variables:        201564                                         |
c |  Number of clauses:          921707                                         |
c |  Parse time:                   0.16 s                                       |
c |                                                                             |
c ============================[ Search Statistics ]==============================
c | Conflicts |          ORIGINAL         |          LEARNT          | Progress |
c |           |    Vars  Clauses Literals |    Limit  Clauses Lit/Cl |          |
c ===============================================================================
c |       100 |  177998   854619  2065578 |   313360      100     23 | 11.692 % |
c |       250 |  177998   854619  2065578 |   344696      250     23 | 11.692 % |
c |       475 |  177998   854619  2065578 |   379165      475     18 | 11.692 % |
c |       812 |  177998   854619  2065578 |   417082      812     48 | 11.692 % |
c |      1318 |  177998   854619  2065578 |   458790     1318     81 | 11.692 % |
c |      2077 |  177998   854619  2065578 |   504669     2077     85 | 11.692 % |
c |      3216 |  177998   854619  2065578 |   555136     3216     95 | 11.692 % |
c |      4924 |  177998   854619  2065578 |   610650     4924     90 | 11.692 % |
c |      7486 |  177998   854619  2065578 |   671715     7486    120 | 11.692 % |
c |     11330 |  177998   854619  2065578 |   738887    11330    126 | 11.692 % |
c |     17096 |  177998   854619  2065578 |   812775    17096    141 | 11.692 % |
c |     25745 |  177998   854619  2065578 |   894053    25745    153 | 11.692 % |
c ===============================================================================
c restarts              : 126
c conflicts             : 36158          (1962 /sec)
c decisions             : 232242         (0.00 % random) (12599 /sec)
c propagations          : 97182767       (5272173 /sec)
c conflict literals     : 5351068        (10.34 % deleted)
d RESTARTS             126
d FAILURES             36158        
d NODES                232242       
d BACKTRACKS           232242       
d PROPAGATIONS         97182767     
d NOGOODSIZE           147.99 
d MEMORY               106.00 
d TIME                 18.4332 

s SATISFIABLE
